(set-logic QF_S)
(declare-fun var0 () String)
(declare-fun var1 () Int)
(declare-fun var2 () Int)
(declare-fun var3 () String)
(declare-fun var4 () Int)
(declare-fun var5 () String)
(declare-fun var6 () String)
(declare-fun var7 () Int)
(assert (> (str.len (str.substr var0 var1 var2)) (str.len (str.at var3 var4))))
(assert (str.suffixof var5 var6))
(assert (str.suffixof (str.at var3 var7) (str.replace var5 var0 var3)))
(assert (str.suffixof (str.substr "bH%!{l@'m" var2 21) (str.at var6 var4)))
(check-sat)